LAMMPS (31 Mar 2017)
# 3D Self-assembly of BCP A5B5
dimension	3
boundary	p p p

neighbor	1.0 bin
neigh_modify	delay 5
neigh_modify    one 10000

atom_style	bond

read_data	7012A2B8.dat
  orthogonal box = (-1.5 0 -2) to (33.5 32 15.6957)
  4 by 4 by 2 MPI processor grid
  reading atoms ...
  115898 atoms
  scanning bonds ...
  1 = max bonds/atom
  reading bonds ...
  63108 bonds
  2 = max # of 1-2 neighbors
  2 = max # of 1-3 neighbors
  4 = max # of 1-4 neighbors
  6 = max # of special neighbors

bond_style	harmonic
bond_coeff	1 50.0 1.0

pair_style	dpd 1.0 1.0 34356
pair_coeff	* * 15.0 4.50 1.0
pair_coeff	1 2 173.68889302279473 4.50 1.0
pair_coeff	1 3 29.5 4.50 1.0
pair_coeff	2 4 29.5 4.50 1.0

group		boundary type 3 4
45778 atoms in group boundary

comm_modify	vel yes
velocity	all create 1.0 34356
velocity	all zero linear
velocity	all zero angular
velocity	boundary set 0.0 0.0 0.0


#compute	myRDF all rdf 500 1 1 cutoff 4.5
#fix 		1 all ave/time 100 1 100 c_myRDF[*] file tmp1.rdf mode vector
#comm_modify	cutoff 5.5

fix		2 all nvt temp 1.0 1.0 0.015
fix		3 boundary setforce 0.0 0.0 0.0
#fix  		3 all wall/lj93 xlo 0.0 1 1 2.5 xhi $x 1 1 2.5
#fix   		4 all wall/lj93 ylo 0.0 1 1 2.5 yhi $y 1 1 2.5


# Run

timestep	0.02
thermo		1000
#thermo_modify	temp mobile
dump		1 all atom 400 dump.A2B8_thin_film_with_wall_XN_100_5

#dump		2 all image 500 image.*.jpg type type #		zoom 1.6 adiam 1.5
#dump_modify	2 pad 5

#dump		3 all movie 500 movie.mpg type type #		zoom 1.6 adiam 1.5
#dump_modify	3 pad 5

run		100000
Neighbor list info ...
  update every 1 steps, delay 5 steps, check yes
  max neighbors/atom: 10000, page size: 100000
  master list distance cutoff = 2
  ghost atom cutoff = 2
  binsize = 1, bins = 35 32 18
  1 neighbor lists, perpetual/occasional/extra = 1 0 0
  (1) pair dpd, perpetual
      attributes: half, newton on
      pair build: half/bin/newton
      stencil: half/bin/3d/newton
      bin: standard
Per MPI rank memory allocation (min/avg/max) = 7.512 | 15.23 | 56.18 Mbytes
Step Temp E_pair E_mol TotEng Press 
       0   0.60376795    178.94127    3.1966666    183.04358    1162.5376 
    1000   0.99989648    9.8491686   0.63708976     11.98609    66.233996 
    2000    1.0004907    9.6860749   0.61412376    11.800922    65.904451 
    3000    1.0034248    9.6612141   0.60861177     11.77495    66.254864 
    4000    1.0021227    9.6679909   0.61294392    11.784106    66.142146 
    5000    1.0018486     9.666424    0.6092585    11.778442    66.099271 
    6000     1.000152    9.6575705   0.61651782    11.774303    65.797147 
    7000   0.99552892    9.6499937   0.60956388    11.752838    66.144398 
    8000    1.0012107    9.6513025    0.6093578    11.762463     65.98718 
    9000    1.0013278    9.6517749   0.61116251    11.764916    65.827213 
   10000   0.99821693    9.6485734   0.61294423     11.75883    65.957146 
   11000   0.99555489    9.6422264   0.60881191    11.744358    65.955733 
   12000    1.0030885    9.6405334   0.60443634    11.749589    66.018558 
   13000   0.99778832    9.6381922   0.60794497    11.742807    65.951441 
   14000    1.0010044    9.6239901   0.60906512    11.734549    65.948383 
   15000   0.99203497    9.6230082   0.60595152    11.716999    65.946295 
   16000   0.99791251    9.6157757   0.59972442    11.712356    66.089175 
   17000    1.0010035    9.6095107   0.60597062    11.716974    65.927529 
   18000    1.0007644    9.6078791   0.60448563    11.713498    65.941523 
   19000    1.0026558    9.6084488   0.60118145    11.713601    66.017155 
   20000     1.002223    9.6092399   0.60263639    11.715198     65.96914 
   21000   0.99944732    9.6119587   0.60360326     11.71472    65.836778 
   22000   0.99909175    9.6058617   0.60160742    11.706094    65.891013 
   23000   0.99595437    9.5980396   0.60262077    11.694579    66.004671 
   24000    1.0004617     9.595592   0.60085788    11.697129    65.859584 
   25000   0.99739054    9.5952325   0.59927841    11.690584    65.814008 
   26000   0.99680459    9.6052984   0.60307784     11.70357    65.741515 
   27000   0.99948482    9.5988595   0.60445431    11.702528     65.79623 
   28000    1.0069679    9.6082811   0.60411437    11.722834    65.856764 
   29000    1.0005405    9.5885131   0.60193126    11.691242    65.838553 
   30000    1.0049161     9.594514   0.59839475     11.70027    65.848608 
   31000   0.99697224     9.597097   0.60670097    11.699243    65.652219 
   32000    1.0026758    9.5858912   0.60394288    11.693835    65.455016 
   33000   0.99831843    9.5892637   0.60427355    11.691002    65.479464 
   34000   0.99856948    9.5873818   0.60581413    11.691037    65.511141 
   35000    1.0039989    9.5844332   0.60663667    11.697055    65.322253 
   36000    1.0048044    9.5934352   0.60753187    11.708161    65.535234 
   37000    1.0024786    9.5887402   0.60464148    11.697087    65.677887 
   38000    1.0017469    9.5897909   0.60511459    11.697513     65.57355 
   39000   0.99609656    9.5977609   0.60721711     11.69911    65.430029 
   40000    0.9996066    9.5876621   0.60212491    11.689184    65.670084 
   41000   0.99913424    9.5931636   0.60184044    11.693692    65.575641 
   42000   0.99903374     9.589597   0.60299813    11.691133    65.842214 
   43000    1.0068821    9.5946758   0.60246447     11.70745    65.734519 
   44000   0.99993534    9.5861829   0.60024477    11.686318    65.622478 
   45000   0.99583167    9.5857356   0.60574974     11.68522    65.466738 
   46000   0.99872107     9.586316   0.59753274    11.681917    65.531349 
   47000   0.99990474    9.5837361   0.60194724    11.685528    65.550076 
   48000    1.0073601    9.5839047   0.60102515    11.695957     65.71255 
   49000   0.99902389    9.5790592   0.60191172    11.679494     65.53382 
   50000   0.99966186    9.5798836   0.60173613      11.6811      65.5591 
   51000   0.99779995     9.575404   0.60258705    11.674678    65.444868 
   52000    1.0006424    9.5723516   0.60566894    11.678971    65.231807 
   53000     1.002985     9.571684   0.60075043    11.676899    65.556901 
   54000   0.99714155    9.5739732   0.60529474    11.674967     65.22077 
   55000   0.99982068    9.5766463   0.60753114    11.683896    65.144294 
   56000    1.0042571    9.5839403   0.60364372    11.693957    65.442452 
   57000    1.0011534    9.5795351   0.59828916    11.679541    65.596971 
   58000    1.0030207    9.5739736   0.60138922    11.679881    65.388361 
   59000    1.0013047    9.5772358   0.60224748    11.681427    65.367033 
   60000    1.0014733    9.5836264   0.60051663     11.68634    65.322943 
   61000     1.003098    9.5834756   0.59937004     11.68748    65.512444 
   62000    1.0040054    9.5788202   0.60181658    11.686632    65.768756 
   63000    1.0008338    9.5752557   0.60037571    11.676869    65.551147 
   64000    1.0021511    9.5790536   0.60412878    11.686396    65.605031 
   65000   0.99691769    9.5804671   0.59886412    11.674695    65.521354 
   66000   0.99964441    9.5824915    0.6025401    11.684485    65.548511 
   67000     1.004055     9.575812   0.60661805      11.6885    65.489475 
   68000    1.0003659     9.581412   0.60452656    11.686475    65.403889 
   69000   0.99958359    9.5834795   0.60007967    11.682922    65.439733 
   70000    1.0036519    9.5814413   0.60064619    11.687552    65.572616 
   71000    1.0037173    9.5868641   0.59667896    11.689106    65.577174 
   72000     1.004591    9.5870022   0.60328125    11.697157    65.592388 
   73000   0.99960559    9.5799275   0.60348565    11.682809    65.465327 
   74000   0.99625174    9.5790749   0.59918847    11.672628    65.555419 
   75000    1.0021131    9.5846115   0.60029217     11.68806     65.54451 
   76000   0.99872699    9.5859424   0.60371852    11.687738    65.586966 
   77000    1.0008596    9.5898511   0.60055428    11.691682    65.621847 
   78000   0.99793289    9.5919695   0.59879546    11.687651    65.779047 
   79000   0.99875328    9.5858791   0.60292569    11.686922    65.649577 
   80000    1.0012703    9.5808566   0.60612386    11.688873    65.572106 
   81000   0.99833508     9.588854   0.59930008    11.685644    65.644609 
   82000    1.0015997    9.5872002   0.59965788    11.689245    65.612066 
   83000   0.99827593    9.5860472   0.60360253    11.687051    65.329337 
   84000   0.99975896    9.5889638   0.59977359    11.688363    65.530473 
   85000   0.99596283    9.5909559   0.60376361    11.688651    65.421148 
   86000   0.99926202    9.5860677    0.5986092    11.683557    65.434127 
   87000    1.0006932    9.5797298   0.60047487    11.681232    65.436938 
   88000    1.0007196    9.5884401   0.60372283    11.693229    65.479982 
   89000   0.99886685     9.592575    0.5978722    11.688735    65.728438 
   90000   0.99762157     9.588148   0.59944967    11.684017    65.586518 
   91000   0.99925616    9.5870695   0.60423336    11.690174    65.573497 
   92000    1.0034002    9.5884641   0.60115536    11.694707    65.627553 
   93000    1.0025336    9.5842263   0.60856026    11.696574    65.522189 
   94000    1.0057796    9.5876922   0.60246978    11.698818    65.663933 
   95000   0.99862902    9.5874814   0.60469958    11.690112    65.732602 
   96000   0.99496796    9.5902967   0.60041907    11.683155    65.574697 
   97000   0.99898281    9.5851899   0.60540553    11.689057    65.592578 
   98000    0.9975662    9.5859239   0.60658746    11.688848    65.544368 
   99000    1.0011081    9.5814273    0.6021524    11.685229    65.589162 
  100000    1.0016183    9.5781222   0.60377942    11.684316    65.582542 
Loop time of 1713.45 on 32 procs for 100000 steps with 115898 atoms

Performance: 100848.961 tau/day, 58.362 timesteps/s
99.7% CPU use with 32 MPI tasks x no OpenMP threads

MPI task timing breakdown:
Section |  min time  |  avg time  |  max time  |%varavg| %total
---------------------------------------------------------------
Pair    | 825.88     | 919.41     | 990.63     | 152.2 | 53.66
Bond    | 7.511      | 8.6982     | 9.6364     |  17.0 |  0.51
Neigh   | 478.6      | 482.75     | 488.81     |  14.9 | 28.17
Comm    | 203.84     | 271.28     | 366.43     | 279.4 | 15.83
Output  | 1.3221     | 1.8207     | 2.3702     |  22.7 |  0.11
Modify  | 15.587     | 17.375     | 19.002     |  28.2 |  1.01
Other   |            | 12.12      |            |       |  0.71

Nlocal:    3621.81 ave 3964 max 3373 min
Histogram: 5 6 4 2 5 2 0 0 1 7
Nghost:    9156.03 ave 9675 max 8792 min
Histogram: 5 8 2 3 4 2 0 0 1 7
Neighs:    437561 ave 482159 max 370602 min
Histogram: 6 2 0 0 0 0 11 1 8 4

Total # of neighbors = 14001956
Ave neighs/atom = 120.813
Ave special neighs/atom = 2.90407
Neighbor list builds = 19998
Dangerous builds = 19996

write_data	finalasymmetric_5.dat
Total wall time: 0:28:35
